c turning on binary mode checking
c parsing input formula with 202048 variables and 780985 clauses
c finished parsing, read 2190433 bytes from proof file
c detected empty clause; start verification via backward checking
c 5653 of 780985 clauses in core                            
c 1892 of 84910 lemmas in core using 36168 resolution steps
c 0 RAT lemmas in core; 214 redundant literals in core lemmas
s VERIFIED
c verification time: 1.042 seconds
